$$$$$$$$$$$$$$$$$$$$$$$$$$$$$$$$$$$$$$$$$$$$$$$$$$$$$$$$$$$$$$$$$$$$$$$$$$$$$$
$ Date: 2019-12-20 13:52
$ Components: AL, CO, CR, VA, W
$ Phases: AL11CR2, AL11CR4, AL12W, AL2W, AL3CO, AL4CR, AL4W, AL5CO2, AL5W,
$  AL7CR, AL8CR5_ALPHA, AL8CR5_BETA, AL8CR5_GAMMA, AL9CO2, ALCR2, BCC_A2,
$  BCC_B2, CO3W, FCC_A1, HCP_A3, L12_FCC, LIQUID, MAL13CO4, MU, OAL13CO4,
$  YAL13CO4
$ Generated by sus26 (pycalphad 0.8.1.post1)
$$$$$$$$$$$$$$$$$$$$$$$$$$$$$$$$$$$$$$$$$$$$$$$$$$$$$$$$$$$$$$$$$$$$$$$$$$$$$$

ELEMENT AL FCC_A1 26.982 4577.3 28.322 !
ELEMENT CO HCP_A3 58.933 0.0 0.0 !
ELEMENT CR BCC_A2 51.996 4050.0 23.56 !
ELEMENT VA VACUUM 0.0 0.0 0.0 !
ELEMENT W BCC_A2 183.85 4970.0 32.62 !


FUNCTION GBCCAL 298.15 -4.813*T + GHSERAL# + 10083; 2900.0 N !
FUNCTION GBCCCO 298.15 -0.7138*T + GHSERCO# + 2938; 6000.0 N !
FUNCTION GBCCCR 298.15 GHSERCR#; 6000.0 N !
FUNCTION GBCCW 298.15 GHSERWW#; 6000.0 N !
FUNCTION GFCCAL 298.15 GHSERAL#; 2900.0 N !
FUNCTION GFCCCO 298.15 -0.615248*T + GHSERCO# + 427.591; 1768.0 Y -0.615253*T
   + GHSERCO# + 427.591; 6000.0 N !
FUNCTION GFCCCR 298.15 0.163*T + GHSERCR# + 7284; 6000.0 N !
FUNCTION GFCCW 298.15 0.63*T + GHSERWW# + 19300; 6000.0 N !
FUNCTION GHCPAL 298.15 -1.8*T + GHSERAL# + 5481; 2900.0 N !
FUNCTION GHCPCO 298.15 GHSERCO#; 6000.0 N !
FUNCTION GHCPCR 298.15 GHSERCR# + 4438; 6000.0 N !
FUNCTION GHCPW 298.15 GHSERWW# + 14750; 6000.0 N !
FUNCTION GHSERAL 298.15 -8.77664E-7*T**3 - 0.001884662*T**2 -
   24.3671976*T*LN(T) + 137.093038*T - 7976.15 + 74092*T**(-1); 700.0 Y
   -5.764227E-6*T**3 + 0.018531982*T**2 - 38.5844296*T*LN(T) + 223.048446*T -
   11276.24 + 74092*T**(-1); 933.47 Y -31.748192*T*LN(T) + 188.684153*T -
   11278.378 - 1.230524E+28*T**(-9); 2900.0 N !
FUNCTION GHSERCO 298.15 -1.7348E-7*T**3 - 0.002654739*T**2 - 25.0861*T*LN(T)
   + 133.36601*T + 310.241 + 72527*T**(-1); 1768.0 Y -40.5*T*LN(T) +
   253.28374*T - 17197.666 + 9.3488E+30*T**(-9); 6000.0 N !
FUNCTION GHSERCR 298.15 -1.47721E-6*T**3 + 0.00189435*T**2 - 26.908*T*LN(T) +
   157.48*T - 8856.94 + 139250*T**(-1); 2180.0 Y -50*T*LN(T) + 344.18*T -
   34869.344 - 2.88526E+32*T**(-9); 6000.0 N !
FUNCTION GHSERVA 1 0; 10000 N !
FUNCTION GHSERWW 298.15 -5.33E-11*T**4 + 2.07E-7*T**3 - 0.001936*T**2 -
   24.1*T*LN(T) + 130.4*T - 7646.311 + 44500*T**(-1); 3695.0 Y -54*T*LN(T) +
   389.362335*T - 82868.801 + 1.528621E+33*T**(-9); 6000.0 N !
FUNCTION GLIQAL 298.15 7.9337E-20*T**7 - 11.841867*T + GHSERAL# + 11005.029;
   700.0 Y 7.9337E-20*T**7 - 11.841867*T + GHSERAL# + 11005.03; 933.47 Y
   -31.748192*T*LN(T) + 177.430178*T - 795.996; 2900.0 N !
FUNCTION GLIQCO 298.15 -2.19801E-21*T**7 - 8.931932*T + GHSERCO# + 15085.037;
   1768.0 Y -40.5*T*LN(T) + 243.599944*T - 846.61; 6000.0 N !
FUNCTION GLIQCR 298.15 2.37615E-21*T**7 - 11.420225*T + GHSERCR# + 24339.955;
   2180.0 Y -50*T*LN(T) + 335.616316*T - 16459.984; 6000.0 N !
FUNCTION GLIQW 298.15 -2.713468E-24*T**7 - 14.10999*T + GHSERWW# + 52160.584;
   3695.0 Y -54*T*LN(T) + 375.175*T - 30436.051; 6000.0 N !
FUNCTION VV0000 1 75000.0; 10000 N !
FUNCTION VV0001 1 -163040.0; 10000 N !
FUNCTION VV0002 1 -12.0999; 10000 N !
FUNCTION VV0003 1 -29.0947; 10000 N !
FUNCTION VV0004 1 -102144.0; 10000 N !
FUNCTION VV0005 1 75000.0; 10000 N !
FUNCTION VV0006 1 -272528.0; 10000 N !
FUNCTION VV0007 1 -17.2568; 10000 N !
FUNCTION VV0008 1 -1.68429E-14; 10000 N !
FUNCTION VV0009 1 -150000.0; 10000 N !
FUNCTION VV0010 1 -97832.5; 10000 N !
FUNCTION VV0011 1 23.6651; 10000 N !
FUNCTION VV0012 1 -10214.5; 10000 N !
FUNCTION VV0013 1 -18.8688; 10000 N !
FUNCTION VV0014 1 -42728.3; 10000 N !
FUNCTION VV0015 1 8.88327; 10000 N !
FUNCTION VV0016 1 60000.0; 10000 N !
FUNCTION VV0017 1 -80400.0; 10000 N !
FUNCTION VV0018 1 -4.87684; 10000 N !
FUNCTION VV0019 1 35.3279; 10000 N !
FUNCTION VV0020 1 -110000.0; 10000 N !
FUNCTION VV0021 1 -74717.7; 10000 N !
FUNCTION VV0022 1 8.05897; 10000 N !
FUNCTION VV0023 1 -322674.0; 10000 N !
FUNCTION VV0024 1 67.691; 10000 N !
FUNCTION VV0025 1 -94324.1; 10000 N !
FUNCTION VV0026 1 23.0905; 10000 N !
FUNCTION VV0027 1 450000.0; 10000 N !
FUNCTION VV0028 1 -199800.0; 10000 N !
FUNCTION VV0029 1 6.11581; 10000 N !
FUNCTION VV0030 1 1.52997E-16; 10000 N !
FUNCTION VV0031 1 -500000.0; 10000 N !
FUNCTION VV0032 1 -330000.0; 10000 N !
FUNCTION VV0033 1 19.999; 10000 N !
FUNCTION VV0034 1 -250000.0; 10000 N !
FUNCTION VV0035 1 -150.001; 10000 N !
FUNCTION VV0036 1 2.4679E-14; 10000 N !
FUNCTION VV0037 1 -700000.0; 10000 N !
FUNCTION VV0038 1 -110000.0; 10000 N !
FUNCTION VV0039 1 -195000.0; 10000 N !
FUNCTION VV0040 1 -72.9996; 10000 N !
FUNCTION VV0041 1 -112.0; 10000 N !
FUNCTION VV0042 1 1.61245E-14; 10000 N !
FUNCTION VV0043 1 -134700.0; 10000 N !
FUNCTION VV0044 1 -200451.0; 10000 N !
FUNCTION VV0045 1 2.58631E-14; 10000 N !
FUNCTION VV0046 1 -200450.0; 10000 N !
FUNCTION VV0047 1 9.57892E-16; 10000 N !
FUNCTION VV0048 1 -134700.0; 10000 N !
FUNCTION VV0049 1 -110000.0; 10000 N !
FUNCTION VV0050 1 -200000.0; 10000 N !
FUNCTION VV0051 1 -68.9996; 10000 N !
FUNCTION VV0052 1 -110.0; 10000 N !
FUNCTION VV0053 1 3.4697E-14; 10000 N !
FUNCTION VV0054 1 -133900.0; 10000 N !
FUNCTION VV0055 1 -206551.0; 10000 N !
FUNCTION VV0056 1 9.57892E-15; 10000 N !
FUNCTION VV0057 1 -206550.0; 10000 N !
FUNCTION VV0058 1 2.22444E-14; 10000 N !
FUNCTION VV0059 1 -133900.0; 10000 N !
FUNCTION VV0060 1 -334996.0; 10000 N !
FUNCTION VV0061 1 56.7293; 10000 N !
FUNCTION VV0062 1 10000.0; 10000 N !
FUNCTION VV0063 1 -35830.0; 10000 N !
FUNCTION VV0064 1 -16.789; 10000 N !
FUNCTION VV0065 1 10000.0; 10000 N !
FUNCTION VV0066 1 -5.32162E-15; 10000 N !
FUNCTION VV0067 1 -45506.9; 10000 N !
FUNCTION VV0068 1 -4.99999; 10000 N !
FUNCTION VV0069 1 -10910.0; 10000 N !
FUNCTION VV0070 1 -5.0; 10000 N !
FUNCTION VV0071 1 -10910.0; 10000 N !
FUNCTION VV0072 1 -45507.0; 10000 N !
FUNCTION VV0073 1 3.27381; 10000 N !
FUNCTION VV0074 1 -96243.7; 10000 N !
FUNCTION VV0075 1 -12.2525; 10000 N !
FUNCTION VV0076 1 -49696.0; 10000 N !
FUNCTION VV0077 1 46912.0; 10000 N !
FUNCTION VV0078 1 -14372.3; 10000 N !
FUNCTION VV0079 1 16.9754; 10000 N !
FUNCTION VV0080 1 -25000.0; 10000 N !
FUNCTION VV0081 1 -10451.5; 10000 N !
FUNCTION VV0082 1 -10.1132; 10000 N !
FUNCTION VV0083 1 15630.6; 10000 N !
FUNCTION VV0084 1 126184.0; 10000 N !
FUNCTION VV0085 1 59999.9; 10000 N !
FUNCTION VV0086 1 99999.9; 10000 N !
FUNCTION VV0087 1 -1320.0; 10000 N !
FUNCTION VV0088 1 31520.0; 10000 N !
FUNCTION VV0089 1 100000.0; 10000 N !
FUNCTION VV0090 1 -23056.4; 10000 N !
FUNCTION VV0091 1 1.4634; 10000 N !
FUNCTION VV0092 1 18258.3; 10000 N !
FUNCTION VV0093 1 -14100.0; 10000 N !
FUNCTION VV0094 1 7.98327; 10000 N !
FUNCTION VV0095 1 36329.0; 10000 N !
FUNCTION VV0096 1 20902.2; 10000 N !
FUNCTION VV0097 1 18568.7; 10000 N !
FUNCTION VV0098 1 3.24286E-16; 10000 N !
FUNCTION VV0099 1 0.0251648; 10000 N !
FUNCTION VV0100 1 -9.97804E-16; 10000 N !
FUNCTION VV0101 1 3.15306E-13; 10000 N !
FUNCTION VV0102 1 -4.99934; 10000 N !
FUNCTION VV0103 1 -12149.7; 10000 N !
FUNCTION VV0104 1 -8.81393E-17; 10000 N !
FUNCTION VV0105 1 0.0801678; 10000 N !
FUNCTION VV0106 1 -1.11754E-15; 10000 N !
FUNCTION VV0107 1 5.74735E-13; 10000 N !
FUNCTION VV0108 1 0.14979; 10000 N !
FUNCTION VV0109 1 0.107849; 10000 N !
FUNCTION VV0110 1 28740.1; 10000 N !
FUNCTION VV0111 1 -0.00194771; 10000 N !
FUNCTION VV0112 1 0.182353; 10000 N !
FUNCTION VV0113 1 17.2399; 10000 N !
FUNCTION VV0114 1 -124200.0; 10000 N !
FUNCTION VV0115 1 7.78897; 10000 N !
FUNCTION VV0116 1 -71759.9; 10000 N !
FUNCTION VV0117 1 14.6469; 10000 N !
FUNCTION VV0118 1 -45000.0; 10000 N !
FUNCTION VV0119 1 -6.61926; 10000 N !
FUNCTION VV0120 1 7288.3; 10000 N !
FUNCTION VV0121 1 -8.28585; 10000 N !
FUNCTION VV0122 1 3245.86; 10000 N !
FUNCTION VV0123 1 0.00154321; 10000 N !
FUNCTION VV0124 1 -0.00271289; 10000 N !
FUNCTION VV0125 1 4.12864; 10000 N !
FUNCTION VV0126 1 -22179.4; 10000 N !
FUNCTION VV0127 1 8.82691; 10000 N !
FUNCTION VV0128 1 -12445.1; 10000 N !
FUNCTION VV0129 1 -1320.25; 10000 N !
FUNCTION VV0130 1 31520.0; 10000 N !
FUNCTION VV0131 1 0.00304459; 10000 N !
FUNCTION VV0132 1 -0.660016; 10000 N !
FUNCTION VV0133 1 354397.0; 10000 N !
FUNCTION VV0134 1 3.04404; 10000 N !
FUNCTION VV0135 1 -70809.0; 10000 N !
FUNCTION VV0136 1 0.00105989; 10000 N !
FUNCTION VV0137 1 -0.2092; 10000 N !
FUNCTION VV0138 1 -0.00294356; 10000 N !
FUNCTION VV0139 1 0.81048; 10000 N !
FUNCTION VV0140 1 -2.34151E-14; 10000 N !
FUNCTION VV0141 1 -7.53967E-13; 10000 N !
FUNCTION VV0142 1 -9999.97; 10000 N !
FUNCTION VV0143 1 20.1998; 10000 N !
FUNCTION VV0144 1 -19250.0; 10000 N !
FUNCTION VV0145 1 -3263.42; 10000 N !
FUNCTION VV0146 1 2.282E-13; 10000 N !
FUNCTION VV0147 1 -1320.25; 10000 N !
FUNCTION VV0148 1 31520.0; 10000 N !
FUNCTION VV0149 1 -3.40937; 10000 N !
FUNCTION VV0150 1 33074.7; 10000 N !
FUNCTION VV0151 1 12.6461; 10000 N !
FUNCTION VV0152 1 -32295.2; 10000 N !
FUNCTION VV0153 1 27.1376; 10000 N !
FUNCTION VV0154 1 -140963.0; 10000 N !
FUNCTION VV0155 1 -2.61117; 10000 N !
FUNCTION VV0156 1 1951.39; 10000 N !
FUNCTION VV0157 1 -9.90668; 10000 N !
FUNCTION VV0158 1 2363.02; 10000 N !
FUNCTION VV0159 1 -1.40642; 10000 N !
FUNCTION VV0160 1 -9578.47; 10000 N !
FUNCTION VV0161 1 -20.334; 10000 N !
FUNCTION VV0162 1 -26986.0; 10000 N !
FUNCTION VV0163 1 11.9234; 10000 N !
FUNCTION VV0164 1 -50315.2; 10000 N !
FUNCTION VV0165 1 -3738.14; 10000 N !
FUNCTION VV0166 1 -8347.32; 10000 N !
FUNCTION VV0167 1 4692.65; 10000 N !
FUNCTION VV0168 1 25.5714; 10000 N !
FUNCTION VV0169 1 -62717.7; 10000 N !
FUNCTION VV0170 1 9000.0; 10000 N !
FUNCTION VV0171 1 10.0; 10000 N !
FUNCTION VV0172 1 -16800.0; 10000 N !
FUNCTION VV0173 1 -0.00282085; 10000 N !
FUNCTION VV0174 1 0.755802; 10000 N !
FUNCTION VV0175 1 2.33943; 10000 N !
FUNCTION VV0176 1 102407.0; 10000 N !
FUNCTION VV0177 1 -230909.0; 10000 N !
FUNCTION VV0178 1 0.000659277; 10000 N !
FUNCTION VV0179 1 -0.979795; 10000 N !
FUNCTION VV0180 1 -0.00286027; 10000 N !
FUNCTION VV0181 1 0.92584; 10000 N !
FUNCTION VV0182 1 -40740.0; 10000 N !
FUNCTION VV0183 1 8.05893; 10000 N !
FUNCTION VV0184 1 20000.0; 10000 N !
FUNCTION VV0185 1 463856.0; 10000 N !
FUNCTION VV0186 1 147541.0; 10000 N !
FUNCTION VV0187 1 578542.0; 10000 N !
FUNCTION VV0188 1 -10000.1; 10000 N !
FUNCTION VV0189 1 463856.0; 10000 N !
FUNCTION VV0190 1 426449.0; 10000 N !
FUNCTION VV0191 1 913777.0; 10000 N !
FUNCTION VV0192 1 554291.0; 10000 N !
FUNCTION VV0193 1 704565.0; 10000 N !
FUNCTION VV0194 1 -17.9387; 10000 N !
FUNCTION VV0195 1 326450.0; 10000 N !
FUNCTION VV0196 1 813777.0; 10000 N !
FUNCTION VV0197 1 -10000.0; 10000 N !
FUNCTION VV0198 1 463856.0; 10000 N !
FUNCTION VV0199 1 47541.2; 10000 N !
FUNCTION VV0200 1 -32.7787; 10000 N !
FUNCTION VV0201 1 478542.0; 10000 N !
FUNCTION VV0202 1 -125303.0; 10000 N !
FUNCTION VV0203 1 52.759; 10000 N !
FUNCTION VV0204 1 363856.0; 10000 N !
FUNCTION VV0205 1 -10000.0; 10000 N !
FUNCTION VV0206 1 633471.0; 10000 N !
FUNCTION VV0207 1 318385.0; 10000 N !
FUNCTION VV0208 1 615491.0; 10000 N !
FUNCTION VV0209 1 -10000.0; 10000 N !
FUNCTION VV0210 1 533471.0; 10000 N !
FUNCTION VV0211 1 342054.0; 10000 N !
FUNCTION VV0212 1 1009470.0; 10000 N !
FUNCTION VV0213 1 -0.0146667; 10000 N !
FUNCTION VV0214 1 483062.0; 10000 N !
FUNCTION VV0215 1 768487.0; 10000 N !
FUNCTION VV0216 1 242053.0; 10000 N !
FUNCTION VV0217 1 909461.0; 10000 N !
FUNCTION VV0218 1 -10000.0; 10000 N !
FUNCTION VV0219 1 533470.0; 10000 N !
FUNCTION VV0220 1 218385.0; 10000 N !
FUNCTION VV0221 1 515490.0; 10000 N !
FUNCTION VV0222 1 -63000.0; 10000 N !
FUNCTION VV0223 1 11.803; 10000 N !
FUNCTION VV0224 1 433471.0; 10000 N !
FUNCTION VV0225 1 2.03715; 10000 N !
FUNCTION VV0226 1 -1.25824; 10000 N !
FUNCTION VV0227 1 -1.79748; 10000 N !
FUNCTION VV0228 1 3.05572; 10000 N !
FUNCTION VV0229 1 0.647094; 10000 N !
FUNCTION VV0230 1 2.75614; 10000 N !
FUNCTION VV0231 1 1.79748; 10000 N !
FUNCTION VV0232 1 1.47675E-15; 10000 N !
FUNCTION VV0233 1 0.539245; 10000 N !
FUNCTION VV0234 1 -1.25824; 10000 N !
FUNCTION VV0235 1 -1.25824; 10000 N !
FUNCTION VV0236 1 -6.37255; 10000 N !
FUNCTION VV0237 1 -2.60759E-15; 10000 N !
FUNCTION VV0238 1 3.29539; 10000 N !
FUNCTION VV0239 1 2.75614; 10000 N !
FUNCTION VV0240 1 -2.5098; 10000 N !
FUNCTION VV0241 1 -4.31051E-15; 10000 N !
FUNCTION VV0242 1 -413537.0; 10000 N !
FUNCTION VV0243 1 -0.539245; 10000 N !
FUNCTION VV0244 1 2.75614; 10000 N !
FUNCTION VV0245 1 0.539245; 10000 N !
FUNCTION VV0246 1 6.31942E-15; 10000 N !
FUNCTION VV0247 1 -1.4979; 10000 N !
FUNCTION VV0248 1 1.25824; 10000 N !
FUNCTION VV0249 1 -2.99341E-15; 10000 N !
FUNCTION VV0250 1 -1.79748; 10000 N !
FUNCTION VV0251 1 -0.539245; 10000 N !
FUNCTION VV0252 1 4.78946E-15; 10000 N !
FUNCTION VV0253 1 -7.1343E-13; 10000 N !
FUNCTION VV0254 1 3.05572; 10000 N !
FUNCTION VV0255 1 -2.60759E-15; 10000 N !
FUNCTION VV0256 1 0.539245; 10000 N !
FUNCTION VV0257 1 -4.1336; 10000 N !
FUNCTION VV0258 1 -5.07487E-11; 10000 N !
FUNCTION VV0259 1 -11.2434; 10000 N !
FUNCTION VV0260 1 1.969E-15; 10000 N !
FUNCTION VV0261 1 -1.41135E-10; 10000 N !
FUNCTION VV0262 1 -4.31051E-15; 10000 N !
FUNCTION VV0263 1 -0.179748; 10000 N !
FUNCTION VV0264 1 -1.25824; 10000 N !
FUNCTION VV0265 1 9.79178E-15; 10000 N !
FUNCTION VV0266 1 1.09047; 10000 N !
FUNCTION VV0267 1 -1.27451; 10000 N !
FUNCTION VV0268 1 -4.31051E-15; 10000 N !
FUNCTION VV0269 1 0.569203; 10000 N !
FUNCTION VV0270 1 -2.75614; 10000 N !
FUNCTION VV0271 1 -1.03239E-14; 10000 N !
FUNCTION VV0272 1 1.79748; 10000 N !
FUNCTION VV0273 1 -42.1579; 10000 N !
FUNCTION VV0274 1 -15109.9; 10000 N !
FUNCTION VV0275 1 -2.23508E-15; 10000 N !
FUNCTION VV0276 1 0.413421; 10000 N !
FUNCTION VV0277 1 -1.79748; 10000 N !
FUNCTION VV0278 1 4.01438; 10000 N !
FUNCTION VV0279 1 0.539245; 10000 N !
FUNCTION VV0280 1 -0.539245; 10000 N !
FUNCTION VV0281 1 1.25824; 10000 N !
FUNCTION VV0282 1 -0.00419413; 10000 N !
FUNCTION VV0283 1 -9.70641; 10000 N !
FUNCTION VV0284 1 3.77835E-15; 10000 N !
FUNCTION VV0285 1 -1.25824; 10000 N !
FUNCTION VV0286 1 -1.25824; 10000 N !
FUNCTION VV0287 1 3.08654E-15; 10000 N !
FUNCTION VV0288 1 2.75614; 10000 N !
FUNCTION VV0289 1 5.09287; 10000 N !
FUNCTION VV0290 1 -7.02454E-15; 10000 N !
FUNCTION VV0291 1 0.713002; 10000 N !
FUNCTION VV0292 1 -1.79748; 10000 N !
FUNCTION VV0293 1 -0.539245; 10000 N !
FUNCTION VV0294 1 -1.25824; 10000 N !
FUNCTION VV0295 1 -2.75614; 10000 N !
FUNCTION VV0296 1 -1.25824; 10000 N !
FUNCTION VV0297 1 6.37255; 10000 N !
FUNCTION VV0298 1 -3.29539; 10000 N !
FUNCTION VV0299 1 0.0107849; 10000 N !
FUNCTION VV0300 1 -23.2475; 10000 N !
FUNCTION VV0301 1 0.539245; 10000 N !
FUNCTION VV0302 1 1.25824; 10000 N !
FUNCTION VV0303 1 -0.539245; 10000 N !
FUNCTION VV0304 1 -0.539245; 10000 N !
FUNCTION VV0305 1 1.79748; 10000 N !
FUNCTION VV0306 1 2.92689E-15; 10000 N !
FUNCTION VV0307 1 -200000.0; 10000 N !
FUNCTION VV0308 1 -2.75614; 10000 N !
FUNCTION VV0309 1 0.00718993; 10000 N !
FUNCTION VV0310 1 -24.9251; 10000 N !
FUNCTION VV0311 1 -1.79748; 10000 N !
FUNCTION VV0312 1 0.0107849; 10000 N !
FUNCTION VV0313 1 -23.4871; 10000 N !
FUNCTION VV0314 1 -0.00718993; 10000 N !
FUNCTION VV0315 1 -11.8035; 10000 N !
FUNCTION VV0316 1 0.539245; 10000 N !
FUNCTION VV0317 1 1.4979; 10000 N !
FUNCTION VV0318 1 -0.539245; 10000 N !
FUNCTION VV0319 1 0.0239664; 10000 N !
FUNCTION VV0320 1 -23.4272; 10000 N !
FUNCTION VV0321 1 4.01438; 10000 N !
FUNCTION VV0322 1 2.92689E-15; 10000 N !
FUNCTION VV0323 1 1.79748; 10000 N !
FUNCTION VV0324 1 -2.03715; 10000 N !
FUNCTION VV0325 1 -0.539245; 10000 N !
FUNCTION VV0326 1 0.539245; 10000 N !
FUNCTION VV0327 1 -2.66081E-16; 10000 N !
FUNCTION VV0328 1 -4.21572E-13; 10000 N !
FUNCTION VV0329 1 1.79748; 10000 N !
FUNCTION VV0330 1 19.5478; 10000 N !
FUNCTION VV0331 1 -347843.0; 10000 N !
FUNCTION VV0332 1 28.9352; 10000 N !
FUNCTION VV0333 1 -8.88178E-16; 10000 N !
FUNCTION VV0334 1 -4.62963; 10000 N !
FUNCTION VV0335 1 5.74585E-16; 10000 N !
FUNCTION VV0336 1 1.39693E-15; 10000 N !
FUNCTION VV0337 1 -1.25824; 10000 N !
FUNCTION VV0338 1 -39769.2; 10000 N !
FUNCTION VV0339 1 7.6676; 10000 N !
FUNCTION VV0340 1 -39956.6; 10000 N !
FUNCTION VV0341 1 7.4806; 10000 N !
FUNCTION RR0001 1 251.83315701794845; 10000 N !
FUNCTION RR0002 1 251.83315701794845; 10000 N !
FUNCTION RR0003 1 4546.932567399381; 10000 N !
FUNCTION RR0004 1 5.95296493015146; 10000 N !
FUNCTION RR0005 1 4546.932567399381; 10000 N !
FUNCTION RR0006 1 5.95296493015146; 10000 N !
FUNCTION RR0007 1 573.3900209848481; 10000 N !
FUNCTION RR0008 1 573.3900209848481; 10000 N !
FUNCTION RR0009 1 482.7637366878553; 10000 N !
FUNCTION RR0010 1 482.7637366878553; 10000 N !
FUNCTION RR0011 1 427.53403886358683; 10000 N !
FUNCTION RR0012 1 427.53403886358683; 10000 N !
FUNCTION RR0013 1 7252.37511128123; 10000 N !
FUNCTION RR0014 1 7252.37511128123; 10000 N !
FUNCTION RR0015 1 1905.1462491652273; 10000 N !
FUNCTION RR0016 1 0.3509763523848628; 10000 N !
FUNCTION RR0017 1 1905.1462491652273; 10000 N !
FUNCTION RR0018 1 0.3509763523848628; 10000 N !
FUNCTION RR0019 1 2773.948345044614; 10000 N !
FUNCTION RR0020 1 3.24401168316486; 10000 N !
FUNCTION RR0021 1 2773.948345044614; 10000 N !
FUNCTION RR0022 1 3.24401168316486; 10000 N !
FUNCTION RR0023 1 171043.56799759908; 10000 N !
FUNCTION RR0024 1 0.29813117423684243; 10000 N !
FUNCTION RR0025 1 171043.56799759908; 10000 N !
FUNCTION RR0026 1 0.29813117423684243; 10000 N !
FUNCTION RR0027 1 2495.348719436216; 10000 N !
FUNCTION RR0028 1 0.816228756544844; 10000 N !
FUNCTION RR0029 1 2495.348719436216; 10000 N !
FUNCTION RR0030 1 0.816228756544844; 10000 N !
FUNCTION RR0031 1 28499.82961201014; 10000 N !
FUNCTION RR0032 1 28499.82961201014; 10000 N !
FUNCTION RR0033 1 2028.963585944357; 10000 N !
FUNCTION RR0034 1 2028.963585944357; 10000 N !
FUNCTION RR0035 1 2129.9237919724983; 10000 N !
FUNCTION RR0036 1 0.4611512120548289; 10000 N !
FUNCTION RR0037 1 2129.9237919724983; 10000 N !
FUNCTION RR0038 1 0.4611512120548289; 10000 N !
FUNCTION RR0039 1 56004.484338956834; 10000 N !
FUNCTION RR0040 1 56004.484338956834; 10000 N !
FUNCTION RR0041 1 2916.644437185345; 10000 N !
FUNCTION RR0042 1 5.871930856560599; 10000 N !
FUNCTION RR0043 1 2916.644437185345; 10000 N !
FUNCTION RR0044 1 5.871930856560599; 10000 N !
FUNCTION RR0045 1 812.1817574235206; 10000 N !
FUNCTION RR0046 1 0.3764351012751376; 10000 N !
FUNCTION RR0047 1 812.1817574235206; 10000 N !
FUNCTION RR0048 1 0.3764351012751376; 10000 N !
FUNCTION RR0049 1 299.59372241337087; 10000 N !
FUNCTION RR0050 1 299.59372241337087; 10000 N !
FUNCTION RR0051 1 16288.644251526224; 10000 N !
FUNCTION RR0052 1 16288.644251526224; 10000 N !
FUNCTION RR0053 1 1568.7901069005616; 10000 N !
FUNCTION RR0054 1 1568.7901069005616; 10000 N !
FUNCTION RR0055 1 4433.788885769132; 10000 N !
FUNCTION RR0056 1 5.274242979879437; 10000 N !
FUNCTION RR0057 1 4433.788885769132; 10000 N !
FUNCTION RR0058 1 5.274242979879437; 10000 N !
FUNCTION RR0059 1 260.0974369846176; 10000 N !
FUNCTION RR0060 1 260.0974369846176; 10000 N !
FUNCTION RR0061 1 6039.096190446879; 10000 N !
FUNCTION RR0062 1 0.09172691148636922; 10000 N !
FUNCTION RR0063 1 6039.096190446879; 10000 N !
FUNCTION RR0064 1 0.09172691148636922; 10000 N !
FUNCTION RR0065 1 2051.609264663221; 10000 N !
FUNCTION RR0066 1 2051.609264663221; 10000 N !
FUNCTION RR0067 1 17601.2130961128; 10000 N !
FUNCTION RR0068 1 17601.2130961128; 10000 N !
FUNCTION RR0069 1 451.9648657752973; 10000 N !
FUNCTION RR0070 1 451.9648657752973; 10000 N !
FUNCTION RR0071 1 6177.095320054992; 10000 N !
FUNCTION RR0072 1 6.238797978250396; 10000 N !
FUNCTION RR0073 1 6177.095320054992; 10000 N !
FUNCTION RR0074 1 6.238797978250396; 10000 N !
FUNCTION RR0075 1 886.6873457461861; 10000 N !
FUNCTION RR0076 1 0.4790358290295881; 10000 N !
FUNCTION RR0077 1 886.6873457461861; 10000 N !
FUNCTION RR0078 1 0.4790358290295881; 10000 N !
FUNCTION RR0079 1 2420.177103300922; 10000 N !
FUNCTION RR0080 1 0.3223669315944492; 10000 N !
FUNCTION RR0081 1 2420.177103300922; 10000 N !
FUNCTION RR0082 1 0.3223669315944492; 10000 N !
FUNCTION RR0083 1 6297.166846381102; 10000 N !
FUNCTION RR0084 1 0.5500545296176381; 10000 N !
FUNCTION RR0085 1 6297.166846381102; 10000 N !
FUNCTION RR0086 1 0.5500545296176381; 10000 N !
FUNCTION RR0087 1 1096.4145651380804; 10000 N !
FUNCTION RR0088 1 1096.4145651380804; 10000 N !
FUNCTION RR0089 1 6136.337962949695; 10000 N !
FUNCTION RR0090 1 0.7232233270940387; 10000 N !
FUNCTION RR0091 1 6136.337962949695; 10000 N !
FUNCTION RR0092 1 0.7232233270940387; 10000 N !
FUNCTION RR0093 1 4260.281957185241; 10000 N !
FUNCTION RR0094 1 4260.281957185241; 10000 N !
FUNCTION RR0095 1 7533.686542113264; 10000 N !
FUNCTION RR0096 1 0.9503491885884854; 10000 N !
FUNCTION RR0097 1 7533.686542113264; 10000 N !
FUNCTION RR0098 1 0.9503491885884854; 10000 N !
FUNCTION RR0099 1 3156.5429567538636; 10000 N !
FUNCTION RR0100 1 3156.5429567538636; 10000 N !
FUNCTION RR0101 1 6994.07391807483; 10000 N !
FUNCTION RR0102 1 5.282666541727481; 10000 N !
FUNCTION RR0103 1 6994.07391807483; 10000 N !
FUNCTION RR0104 1 5.282666541727481; 10000 N !
FUNCTION RR0105 1 476.0218279195933; 10000 N !
FUNCTION RR0106 1 476.0218279195933; 10000 N !
FUNCTION RR0107 1 1411.6379570989077; 10000 N !
FUNCTION RR0108 1 0.8127910338861222; 10000 N !
FUNCTION RR0109 1 1411.6379570989077; 10000 N !
FUNCTION RR0110 1 0.8127910338861222; 10000 N !
FUNCTION RR0111 1 1852.0968318370433; 10000 N !
FUNCTION RR0112 1 1852.0968318370433; 10000 N !
FUNCTION RR0113 1 1956.5001967414482; 10000 N !
FUNCTION RR0114 1 0.07137642260643196; 10000 N !
FUNCTION RR0115 1 1956.5001967414482; 10000 N !
FUNCTION RR0116 1 0.07137642260643196; 10000 N !
FUNCTION RR0117 1 476.2487770937296; 10000 N !
FUNCTION RR0118 1 476.2487770937296; 10000 N !
FUNCTION RR0119 1 1411.0675384032002; 10000 N !
FUNCTION RR0120 1 0.07952250169635633; 10000 N !
FUNCTION RR0121 1 1411.0675384032002; 10000 N !
FUNCTION RR0122 1 0.07952250169635633; 10000 N !
FUNCTION RR0123 1 1851.5432633989058; 10000 N !
FUNCTION RR0124 1 1851.5432633989058; 10000 N !
FUNCTION RR0125 1 1956.842073036798; 10000 N !
FUNCTION RR0126 1 0.11703094258857405; 10000 N !
FUNCTION RR0127 1 1956.842073036798; 10000 N !
FUNCTION RR0128 1 0.11703094258857405; 10000 N !
FUNCTION RR0129 1 476.29131872178186; 10000 N !
FUNCTION RR0130 1 0.12146849486282418; 10000 N !
FUNCTION RR0131 1 476.29131872178186; 10000 N !
FUNCTION RR0132 1 0.12146849486282418; 10000 N !
FUNCTION RR0133 1 1411.5387880612616; 10000 N !
FUNCTION RR0134 1 0.4292418636312437; 10000 N !
FUNCTION RR0135 1 1411.5387880612616; 10000 N !
FUNCTION RR0136 1 0.4292418636312437; 10000 N !
FUNCTION RR0137 1 1852.2106542241258; 10000 N !
FUNCTION RR0138 1 0.06093645690439303; 10000 N !
FUNCTION RR0139 1 1852.2106542241258; 10000 N !
FUNCTION RR0140 1 0.06093645690439303; 10000 N !
FUNCTION RR0141 1 1956.4848099227743; 10000 N !
FUNCTION RR0142 1 0.22491506289525132; 10000 N !
FUNCTION RR0143 1 1956.4848099227743; 10000 N !
FUNCTION RR0144 1 0.22491506289525132; 10000 N !
FUNCTION RR0145 1 476.0609070148548; 10000 N !
FUNCTION RR0146 1 476.0609070148548; 10000 N !
FUNCTION RR0147 1 1411.7938064661212; 10000 N !
FUNCTION RR0148 1 1.3974772413063548; 10000 N !
FUNCTION RR0149 1 1411.7938064661212; 10000 N !
FUNCTION RR0150 1 1.3974772413063548; 10000 N !
FUNCTION RR0151 1 1851.9850860567208; 10000 N !
FUNCTION RR0152 1 0.06709502411641324; 10000 N !
FUNCTION RR0153 1 1851.9850860567208; 10000 N !
FUNCTION RR0154 1 0.06709502411641324; 10000 N !
FUNCTION RR0155 1 1956.2561207193319; 10000 N !
FUNCTION RR0156 1 0.2763296524283118; 10000 N !
FUNCTION RR0157 1 1956.2561207193319; 10000 N !
FUNCTION RR0158 1 0.2763296524283118; 10000 N !
FUNCTION RR0159 1 475.9952885562825; 10000 N !
FUNCTION RR0160 1 475.9952885562825; 10000 N !
FUNCTION RR0161 1 1411.5351473906826; 10000 N !
FUNCTION RR0162 1 1.142419553345893; 10000 N !
FUNCTION RR0163 1 1411.5351473906826; 10000 N !
FUNCTION RR0164 1 1.142419553345893; 10000 N !
FUNCTION RR0165 1 1852.088707772297; 10000 N !
FUNCTION RR0166 1 0.09313726954632753; 10000 N !
FUNCTION RR0167 1 1852.088707772297; 10000 N !
FUNCTION RR0168 1 0.09313726954632753; 10000 N !
FUNCTION RR0169 1 1956.7167610078732; 10000 N !
FUNCTION RR0170 1 0.18631917969092487; 10000 N !
FUNCTION RR0171 1 1956.7167610078732; 10000 N !
FUNCTION RR0172 1 0.18631917969092487; 10000 N !
FUNCTION RR0173 1 593.3010168039036; 10000 N !
FUNCTION RR0174 1 593.3010168039036; 10000 N !
FUNCTION RR0175 1 33.69969782528642; 10000 N !
FUNCTION RR0176 1 33.69969782528642; 10000 N !
FUNCTION RR0177 1 936.2759785087728; 10000 N !
FUNCTION RR0178 1 936.2759785087728; 10000 N !
FUNCTION RR0179 1 1101.3206914961193; 10000 N !
FUNCTION RR0180 1 1101.3206914961193; 10000 N !
FUNCTION RR0181 1 595.9315885028918; 10000 N !
FUNCTION RR0182 1 10.835171323342195; 10000 N !
FUNCTION RR0183 1 595.9315885028918; 10000 N !
FUNCTION RR0184 1 10.835171323342195; 10000 N !
FUNCTION RR0185 1 2762.7992155593674; 10000 N !
FUNCTION RR0186 1 2762.7992155593674; 10000 N !
FUNCTION RR0187 1 2405.3619662762867; 10000 N !
FUNCTION RR0188 1 2405.3619662762867; 10000 N !
FUNCTION RR0189 1 34.74397795834011; 10000 N !
FUNCTION RR0190 1 5.096425942440858; 10000 N !
FUNCTION RR0191 1 34.74397795834011; 10000 N !
FUNCTION RR0192 1 5.096425942440858; 10000 N !
FUNCTION RR0193 1 935.3463403417081; 10000 N !
FUNCTION RR0194 1 5.648752241154609; 10000 N !
FUNCTION RR0195 1 935.3463403417081; 10000 N !
FUNCTION RR0196 1 5.648752241154609; 10000 N !
FUNCTION RR0197 1 2767.327402052091; 10000 N !
FUNCTION RR0198 1 1.0690295890948214; 10000 N !
FUNCTION RR0199 1 2767.327402052091; 10000 N !
FUNCTION RR0200 1 1.0690295890948214; 10000 N !
FUNCTION RR0201 1 589.3491868301135; 10000 N !
FUNCTION RR0202 1 1.2430490957249125; 10000 N !
FUNCTION RR0203 1 589.3491868301135; 10000 N !
FUNCTION RR0204 1 1.2430490957249125; 10000 N !
FUNCTION RR0205 1 32.91082031987389; 10000 N !
FUNCTION RR0206 1 32.91082031987389; 10000 N !
FUNCTION RR0207 1 1101.6864099727645; 10000 N !
FUNCTION RR0208 1 1.0930638706921876; 10000 N !
FUNCTION RR0209 1 1101.6864099727645; 10000 N !
FUNCTION RR0210 1 1.0930638706921876; 10000 N !
FUNCTION RR0211 1 2408.959590358674; 10000 N !
FUNCTION RR0212 1 0.44223951240282844; 10000 N !
FUNCTION RR0213 1 2408.959590358674; 10000 N !
FUNCTION RR0214 1 0.44223951240282844; 10000 N !
FUNCTION RR0215 1 936.2658593383239; 10000 N !
FUNCTION RR0216 1 936.2658593383239; 10000 N !
FUNCTION RR0217 1 1103.23517506817; 10000 N !
FUNCTION RR0218 1 1103.23517506817; 10000 N !
FUNCTION RR0219 1 2759.0745328041085; 10000 N !
FUNCTION RR0220 1 2759.0745328041085; 10000 N !
FUNCTION RR0221 1 2413.2895119672467; 10000 N !
FUNCTION RR0222 1 2413.2895119672467; 10000 N !
FUNCTION RR0223 1 593.3088159887411; 10000 N !
FUNCTION RR0224 1 15.165182354895059; 10000 N !
FUNCTION RR0225 1 593.3088159887411; 10000 N !
FUNCTION RR0226 1 15.165182354895059; 10000 N !
FUNCTION RR0227 1 34.958548166463515; 10000 N !
FUNCTION RR0228 1 4.745514498994744; 10000 N !
FUNCTION RR0229 1 34.958548166463515; 10000 N !
FUNCTION RR0230 1 4.745514498994744; 10000 N !
FUNCTION RR0231 1 936.3644475251331; 10000 N !
FUNCTION RR0232 1 5.026212758890203; 10000 N !
FUNCTION RR0233 1 936.3644475251331; 10000 N !
FUNCTION RR0234 1 5.026212758890203; 10000 N !
FUNCTION RR0235 1 1102.8118667086092; 10000 N !
FUNCTION RR0236 1 0.5205642013819216; 10000 N !
FUNCTION RR0237 1 1102.8118667086092; 10000 N !
FUNCTION RR0238 1 0.5205642013819216; 10000 N !
FUNCTION RR0239 1 590.5400271032413; 10000 N !
FUNCTION RR0240 1 590.5400271032413; 10000 N !
FUNCTION RR0241 1 2763.2923418972787; 10000 N !
FUNCTION RR0242 1 0.9584358536470217; 10000 N !
FUNCTION RR0243 1 2763.2923418972787; 10000 N !
FUNCTION RR0244 1 0.9584358536470217; 10000 N !
FUNCTION RR0245 1 2406.407342531573; 10000 N !
FUNCTION RR0246 1 2406.407342531573; 10000 N !
FUNCTION RR0247 1 34.18565491127629; 10000 N !
FUNCTION RR0248 1 34.18565491127629; 10000 N !
FUNCTION RR0249 1 936.749768323134; 10000 N !
FUNCTION RR0250 1 936.749768323134; 10000 N !
FUNCTION RR0251 1 2757.982674005041; 10000 N !
FUNCTION RR0252 1 2757.982674005041; 10000 N !
FUNCTION RR0253 1 595.9978569217637; 10000 N !
FUNCTION RR0254 1 1.1426792391960578; 10000 N !
FUNCTION RR0255 1 595.9978569217637; 10000 N !
FUNCTION RR0256 1 1.1426792391960578; 10000 N !
FUNCTION RR0257 1 34.88687873399249; 10000 N !
FUNCTION RR0258 1 1.9432876005803914; 10000 N !
FUNCTION RR0259 1 34.88687873399249; 10000 N !
FUNCTION RR0260 1 1.9432876005803914; 10000 N !
FUNCTION RR0261 1 1102.919153012961; 10000 N !
FUNCTION RR0262 1 1102.919153012961; 10000 N !
FUNCTION RR0263 1 2414.458376268565; 10000 N !
FUNCTION RR0264 1 2414.458376268565; 10000 N !
FUNCTION RR0265 1 935.7252598244813; 10000 N !
FUNCTION RR0266 1 2.290734857309399; 10000 N !
FUNCTION RR0267 1 935.7252598244813; 10000 N !
FUNCTION RR0268 1 2.290734857309399; 10000 N !
FUNCTION RR0269 1 1101.0392391407586; 10000 N !
FUNCTION RR0270 1 2.0746522329501147; 10000 N !
FUNCTION RR0271 1 1101.0392391407586; 10000 N !
FUNCTION RR0272 1 2.0746522329501147; 10000 N !
FUNCTION RR0273 1 2768.580817921764; 10000 N !
FUNCTION RR0274 1 0.9504829181434227; 10000 N !
FUNCTION RR0275 1 2768.580817921764; 10000 N !
FUNCTION RR0276 1 0.9504829181434227; 10000 N !
FUNCTION RR0277 1 2406.3136666041246; 10000 N !
FUNCTION RR0278 1 1.1962521322437807; 10000 N !
FUNCTION RR0279 1 2406.3136666041246; 10000 N !
FUNCTION RR0280 1 1.1962521322437807; 10000 N !
FUNCTION RR0281 1 591.4975627530366; 10000 N !
FUNCTION RR0282 1 591.4975627530366; 10000 N !
FUNCTION RR0283 1 33.81849730785325; 10000 N !
FUNCTION RR0284 1 33.81849730785325; 10000 N !
FUNCTION RR0285 1 935.6496979738731; 10000 N !
FUNCTION RR0286 1 935.6496979738731; 10000 N !
FUNCTION RR0287 1 1102.3009461473557; 10000 N !
FUNCTION RR0288 1 1102.3009461473557; 10000 N !
FUNCTION RR0289 1 591.8344848196139; 10000 N !
FUNCTION RR0290 1 591.8344848196139; 10000 N !
FUNCTION RR0291 1 2759.844998105982; 10000 N !
FUNCTION RR0292 1 2759.844998105982; 10000 N !